 ! --------------------------------------------------- CP Optimizer 22.1.1.0 --
 ! Satisfiability problem - 60625 variables, 745317 constraints
 ! Presolve      : 37500 extractables eliminated
 ! TimeLimit            = 3600
 ! Workers              = 1
 ! Initial process time : 6.81s (6.79s extraction + 0.03s propagation)
 !  . Log search space  : 625790.3 (before), 625790.3 (after)
 !  . Memory usage      : 460.2 MB (before), 460.2 MB (after)
 ! Using sequential search.
 ! ----------------------------------------------------------------------------
 !               Branches  Non-fixed            Branch decision
                     1099      59883        F          presenceOf(copy_bus_parking:7_0)
                     2056      49331        F   433  = endOf(copy_lane_parking:5_0)
                     3000      57750                   presenceOf(copy_lane_parking:8_151)
                     4000      39427                   presenceOf(copy_lane_parking:3_11)
                     5000      27569                   presenceOf(copy_lane_parking:5_44)
                     6000      26334                   presenceOf(copy_lane_parking:2_74)
                     7000      20474                   presenceOf(copy_lane_parking:2_89)
                     8000      53422                  !presenceOf(copy_trips:28_12)
                     9000      20921                  !presenceOf(copy_bus_parking:44_271)
                    10000      20921            247 != endOf(start_parking:38)
                    11000      36003        F          presenceOf(copy_trips:2_9)
                    12000      35201                  !presenceOf(copy_bus_parking:21_2)
                    13000      38587                  !presenceOf(copy_trips:5_370)
                    14000      38584                   presenceOf(copy_lane_parking:1_367)
                    15000      38581            247  = endOf(start_parking:39)
                    16000      38581        F          presenceOf(copy_trips:10_372)
                    17000      38581                  !presenceOf(copy_trips:7_26)
                    18000      41876                   presenceOf(copy_trips:25_190)
                    19000      20626                   presenceOf(copy_trips:42_291)
                    20000      38572                   presenceOf(copy_lane_parking:7_121)
 ! Time = 48.80s, Average fail depth = 408, Memory usage = 1.7 GB
 !               Branches  Non-fixed            Branch decision
                    21000      42665                   presenceOf(copy_lane_parking:7_141)
                    22000      38584                   presenceOf(copy_lane_parking:1_105)
                    23000      38599                  !presenceOf(copy_trips:32_374)
                    24000      38593                  !presenceOf(copy_trips:28_374)
                    25000      38593                  !presenceOf(copy_trips:41_374)
                    26000      38584        F          presenceOf(copy_trips:44_370)
                    27000      38581                   presenceOf(copy_lane_parking:4_166)
                    28000      27421                  !presenceOf(copy_bus_parking:28_38)
                    29000      27421        F          presenceOf(copy_trips:41_372)
                    30000      38587        F          presenceOf(copy_trips:14_372)
                    31000      38590                  !presenceOf(copy_bus_parking:13_370)
                    32000      38587                   presenceOf(copy_lane_parking:1_252)
                    33000      20779                   presenceOf(copy_lane_parking:2_43)
                    34000      26953                   presenceOf(copy_lane_parking:3_229)
                    35000      55165                   presenceOf(copy_bus_parking:13_171)
                    36000      26032                   presenceOf(copy_bus_parking:47_196)
                    37000      35110                   presenceOf(copy_lane_parking:1_101)
                    38000      20771        F          presenceOf(copy_bus_parking:19_271)
                    39000      20771        F          presenceOf(copy_bus_parking:34_40)
                    40000      25128                  !presenceOf(copy_bus_parking:34_370)
 ! Time = 90.25s, Average fail depth = 465, Memory usage = 1.7 GB
 !               Branches  Non-fixed            Branch decision
                    41000      27249                  !presenceOf(copy_trips:37_38)
                    42000      27249                   presenceOf(copy_bus_parking:29_326)
                    43000      38599                  !presenceOf(copy_trips:43_368)
                    44000      38578                  !presenceOf(copy_trips:1_26)
                    45000      38587        F          presenceOf(copy_bus_parking:6_372)
                    46000      31865                  !presenceOf(copy_trips:35_4)
                    47000      20927                  !presenceOf(copy_bus_parking:19_271)
                    48000      20773                  !presenceOf(copy_bus_parking:27_271)
                    49000      20927                  !presenceOf(copy_bus_parking:29_271)
                    50000      20927                   presenceOf(copy_lane_parking:5_138)
                    51000      20773                  !presenceOf(copy_trips:8_271)
                    52000      20924                   presenceOf(copy_trips:3_98)
                    53000      28606                  !presenceOf(copy_trips:3_105)
                    54000      28606                  !presenceOf(copy_trips:3_105)
                    55000      28606                   presenceOf(copy_trips:5_98)
                    56000      28606                  !presenceOf(copy_bus_parking:36_27)
                    57000      42671        F         !presenceOf(copy_bus_parking:42_117)
                    58000      42668                  !presenceOf(copy_bus_parking:1_27)
                    59000      42668                   presenceOf(copy_trips:43_29)
                    60000      43042                  !presenceOf(copy_bus_parking:6_27)
 ! Time = 129.42s, Average fail depth = 491, Memory usage = 1.7 GB
 !               Branches  Non-fixed            Branch decision
                    61000      42671                  !presenceOf(copy_bus_parking:3_27)
                    62000      42668                  !presenceOf(copy_trips:40_30)
                    63000      43045                  !presenceOf(copy_bus_parking:45_27)
                    64000      42668                  !presenceOf(copy_bus_parking:11_27)
                    65000      42668        F          presenceOf(copy_trips:42_26)
                    66000      42668        F          presenceOf(copy_trips:41_26)
                    67000      42668                  !presenceOf(copy_bus_parking:19_27)
                    68000      42668                  !presenceOf(copy_bus_parking:33_27)
                    69000      42668                  !presenceOf(copy_trips:18_4)
                    70000      38590                  !presenceOf(copy_trips:5_374)
                    71000      38584        F         !presenceOf(copy_bus_parking:4_372)
                    72000      38584                   presenceOf(copy_trips:40_370)
                    73000      38581        F         !presenceOf(copy_bus_parking:4_372)
                    74000      38584                   presenceOf(copy_lane_parking:8_78)
                    75000      38584                  !presenceOf(copy_bus_parking:45_374)
                    76000      38587                   presenceOf(copy_bus_parking:48_330)
                    77000      38572                  !presenceOf(copy_trips:41_370)
                    78000      38566                   presenceOf(copy_lane_parking:8_284)
                    79000      20635                  !presenceOf(copy_trips:42_268)
                    80000      20635        F          presenceOf(copy_bus_parking:48_366)
 ! Time = 166.63s, Average fail depth = 484, Memory usage = 1.7 GB
 !               Branches  Non-fixed            Branch decision
                    81000      20635        F          presenceOf(copy_trips:35_271)
                    82000      20635        F          presenceOf(copy_trips:37_271)
                    83000      20635        F          presenceOf(copy_bus_parking:3_366)
                    84000      20635                  !presenceOf(copy_trips:33_268)
                    85000      20632                  !presenceOf(copy_trips:41_268)
                    86000      20635        F          presenceOf(copy_trips:6_271)
                    87000      20635        F          presenceOf(copy_bus_parking:3_366)
                    88000      20635                  !presenceOf(copy_trips:17_268)
                    89000      20777        F          presenceOf(copy_trips:37_271)
                    90000      20777                  !presenceOf(copy_trips:29_268)
                    91000      20777                  !presenceOf(copy_trips:40_268)
                    92000      20777                   presenceOf(copy_lane_parking:2_360)
                    93000      26524                   presenceOf(copy_bus_parking:16_222)
                    94000      20765                  !presenceOf(copy_bus_parking:36_271)
                    95000      20768                   presenceOf(copy_lane_parking:4_248)
                    96000      38584                   presenceOf(copy_lane_parking:5_25)
                    97000      43434                   presenceOf(copy_lane_parking:7_9)
                    98000      38572                   presenceOf(copy_trips:42_327)
                    99000      38587                   presenceOf(copy_lane_parking:3_87)
                     100k      20773                   presenceOf(copy_lane_parking:6_23)
 ! Time = 191.07s, Average fail depth = 507, Memory usage = 1.7 GB
 !               Branches  Non-fixed            Branch decision
                     101k      38578                   presenceOf(copy_lane_parking:6_365)
                     102k      41970                   presenceOf(copy_trips:24_26)
                     103k      41967                  !presenceOf(copy_trips:38_28)
                     104k      41970                  !presenceOf(copy_trips:40_28)
                     105k      41967                  !presenceOf(copy_bus_parking:2_24)
                     106k      42590                   presenceOf(copy_lane_parking:5_308)
                     107k      20779                   presenceOf(copy_lane_parking:6_327)
                     108k      38572                  !presenceOf(copy_bus_parking:36_370)
                     109k      38578                  !presenceOf(copy_trips:29_370)
                     110k      20927                  !presenceOf(copy_trips:8_271)
                     111k      20927        F          presenceOf(copy_trips:23_40)
                     112k      42431        F          presenceOf(copy_trips:23_27)
                     113k      38596                  !presenceOf(copy_bus_parking:34_370)
                     114k      38578        F          presenceOf(copy_trips:34_83)
                     115k      38590        F          presenceOf(copy_trips:10_372)
                     116k      38581        F          presenceOf(copy_trips:33_99)
                     117k      54203        F          presenceOf(copy_trips:46_0)
                     118k      47763                   presenceOf(copy_bus_parking:20_359)
                     119k      38581                   presenceOf(copy_lane_parking:5_226)
                     120k      54527        F          presenceOf(copy_bus_parking:4_5)
 ! Time = 235.02s, Average fail depth = 489, Memory usage = 1.7 GB
 !               Branches  Non-fixed            Branch decision
                     121k      54527        F         !presenceOf(copy_bus_parking:14_0)
                     122k      54527                  !presenceOf(copy_bus_parking:24_5)
                     123k      32749                   presenceOf(copy_trips:39_251)
                     124k      20770        F          presenceOf(copy_bus_parking:14_368)
                     125k      38572                  !presenceOf(copy_trips:7_374)
                     126k      20924        F          presenceOf(copy_trips:9_271)
                     127k      20924        F          presenceOf(copy_trips:17_271)
                     128k      20924        F          presenceOf(copy_trips:45_271)
                     129k      20921        F          presenceOf(copy_trips:12_271)
                     130k      20643        F          presenceOf(copy_trips:43_268)
                     131k      20643        F         !presenceOf(start_parking:38)
                     132k      20617                  !presenceOf(copy_trips:16_366)
                     133k      20303                  !presenceOf(copy_trips:46_366)
                     134k      20303        F          presenceOf(copy_trips:17_368)
                     135k      20303                  !presenceOf(copy_bus_parking:46_370)
                     136k      20303        F          presenceOf(copy_bus_parking:27_268)
                     137k      20303        F          presenceOf(copy_bus_parking:30_268)
                     138k      20303                  !presenceOf(copy_trips:6_366)
                     139k      20303                  !presenceOf(copy_bus_parking:25_370)
                     140k      20303                  !presenceOf(copy_trips:30_366)
 ! Time = 256.37s, Average fail depth = 500, Memory usage = 1.7 GB
 !               Branches  Non-fixed            Branch decision
                     141k      20303        F          presenceOf(copy_trips:19_368)
                     142k      20303        F          presenceOf(copy_trips:31_368)
                     143k      20303        F          presenceOf(copy_trips:15_368)
                     144k      20154                  !presenceOf(copy_bus_parking:6_370)
                     145k      20154                   presenceOf(copy_lane_parking:7_330)
                     146k      20776                  !presenceOf(copy_trips:32_366)
                     147k      20773        F          presenceOf(copy_bus_parking:23_271)
                     148k      20776                  !presenceOf(copy_trips:39_366)
                     149k      20776                   presenceOf(copy_trips:37_364)
                     150k      38572        F          presenceOf(copy_trips:2_83)
                     151k      36210        F          presenceOf(copy_trips:15_30)
                     152k      43200                   presenceOf(copy_lane_parking:4_348)
                     153k      38575                   presenceOf(copy_lane_parking:2_248)
                     154k      42515                  !presenceOf(copy_trips:22_59)
                     155k      36216                  !presenceOf(copy_trips:29_144)
                     156k      22985                  !presenceOf(copy_trips:0_228)
                     157k       6676        F          presenceOf(copy_trips:26_289)
 *                   157k  282.71s                   -
 ! ----------------------------------------------------------------------------
 ! Search completed, 1 solution found.
 ! ----------------------------------------------------------------------------
 ! Number of branches     : 157799
 ! Number of fails        : 55699
 ! Total memory usage     : 1.9 GB (1.9 GB CP Optimizer + 0.0 GB Concert)
 ! Time spent in solve    : 282.73s (275.95s engine + 6.79s extraction)
 ! Search speed (br. / s) : 571.9
 ! ----------------------------------------------------------------------------
